Grasp exp. instance_n_20_m_5_id_4.lp tipoLifted 0 szPool 5 nIteration 20 alpha 1 
Academic license - for non-commercial use only
Read LP format model from file ../input/instancesGenerated/instance_n_20_m_5_id_4.lp
Reading time = 0.00 seconds
: 5 rows, 20 columns, 100 nonzeros
Optimize a model with 5 rows, 20 columns and 100 nonzeros
Variable types: 0 continuous, 20 integer (20 binary)
Coefficient statistics:
  Matrix range     [1e+00, 1e+01]
  Objective range  [1e+00, 1e+01]
  Bounds range     [1e+00, 1e+00]
  RHS range        [5e+01, 6e+01]
Found heuristic solution: objective 48.0000000

Explored 0 nodes (0 simplex iterations) in 0.00 seconds
Thread count was 1 (of 8 available processors)

Solution count 1: 48 
No other solutions better than 0

Solution limit reached
Best objective 4.800000000000e+01, best bound -, gap -
C_1:	 3.00 x_1  = 0.000000 + 1.00 x_2  = 1.000000 + 5.00 x_3  = 0.000000 + 2.00 x_4  = 0.000000 + 6.00 x_5  = 1.000000 + 4.00 x_6  = 0.000000 + 7.00 x_7  = 1.000000 + 10.00 x_8  = 1.000000 + 2.00 x_9  = 0.324675 + 2.00 x_10  = 1.000000 + 4.00 x_11  = 1.000000 + 5.00 x_12  = 0.467532 + 10.00 x_13  = 1.000000 + 8.00 x_14  = 0.000000 + 8.00 x_15  = 0.000000 + 4.00 x_16  = 1.000000 + 10.00 x_17  = 0.000000 + 9.00 x_18  = 0.000000 + 5.00 x_19  = 0.000000 + 4.00 x_20  = 1.000000 <= 54.00
C_2:	 8.00 x_1  = 0.000000 + 6.00 x_2  = 1.000000 + 6.00 x_3  = 0.000000 + 7.00 x_4  = 0.000000 + 1.00 x_5  = 1.000000 + 7.00 x_6  = 0.000000 + 6.00 x_7  = 1.000000 + 5.00 x_8  = 1.000000 + 8.00 x_9  = 0.324675 + 10.00 x_10  = 1.000000 + 10.00 x_11  = 1.000000 + 3.00 x_12  = 0.467532 + 10.00 x_13  = 1.000000 + 6.00 x_14  = 0.000000 + 4.00 x_15  = 0.000000 + 8.00 x_16  = 1.000000 + 10.00 x_17  = 0.000000 + 2.00 x_18  = 0.000000 + 7.00 x_19  = 0.000000 + 3.00 x_20  = 1.000000 <= 63.00
C_3:	 5.00 x_1  = 0.000000 + 3.00 x_2  = 1.000000 + 10.00 x_3  = 0.000000 + 6.00 x_4  = 0.000000 + 10.00 x_5  = 1.000000 + 7.00 x_6  = 0.000000 + 1.00 x_7  = 1.000000 + 2.00 x_8  = 1.000000 + 7.00 x_9  = 0.324675 + 5.00 x_10  = 1.000000 + 5.00 x_11  = 1.000000 + 6.00 x_12  = 0.467532 + 10.00 x_13  = 1.000000 + 3.00 x_14  = 0.000000 + 3.00 x_15  = 0.000000 + 3.00 x_16  = 1.000000 + 9.00 x_17  = 0.000000 + 10.00 x_18  = 0.000000 + 7.00 x_19  = 0.000000 + 9.00 x_20  = 1.000000 <= 60.00
C_4:	 10.00 x_1  = 0.000000 + 6.00 x_2  = 1.000000 + 3.00 x_3  = 0.000000 + 9.00 x_4  = 0.000000 + 1.00 x_5  = 1.000000 + 8.00 x_6  = 0.000000 + 8.00 x_7  = 1.000000 + 2.00 x_8  = 1.000000 + 9.00 x_9  = 0.324675 + 5.00 x_10  = 1.000000 + 7.00 x_11  = 1.000000 + 5.00 x_12  = 0.467532 + 7.00 x_13  = 1.000000 + 8.00 x_14  = 0.000000 + 2.00 x_15  = 0.000000 + 8.00 x_16  = 1.000000 + 6.00 x_17  = 0.000000 + 2.00 x_18  = 0.000000 + 9.00 x_19  = 0.000000 + 2.00 x_20  = 1.000000 <= 58.00
C_5:	 6.00 x_1  = 0.000000 + 6.00 x_2  = 1.000000 + 8.00 x_3  = 0.000000 + 7.00 x_4  = 0.000000 + 8.00 x_5  = 1.000000 + 2.00 x_6  = 0.000000 + 9.00 x_7  = 1.000000 + 8.00 x_8  = 1.000000 + 1.00 x_9  = 0.324675 + 7.00 x_10  = 1.000000 + 6.00 x_11  = 1.000000 + 10.00 x_12  = 0.467532 + 2.00 x_13  = 1.000000 + 10.00 x_14  = 0.000000 + 1.00 x_15  = 0.000000 + 5.00 x_16  = 1.000000 + 7.00 x_17  = 0.000000 + 8.00 x_18  = 0.000000 + 8.00 x_19  = 0.000000 + 7.00 x_20  = 1.000000 <= 63.00
Solution initial: 78.025974 
Number Constraints Used in Cover:5
GRASP Method!
Number cuts repeat: 0
value: 78.025974
Number Constraints Used in Cover:14
GRASP Method!
Number cuts repeat: 0
value: 78.025974
Number Constraints Used in Cover:35
GRASP Method!
Number cuts repeat: 0
value: 78.025974
Number Constraints Used in Cover:44
GRASP Method!
Number cuts repeat: 0
value: 78.025974
Number Constraints Used in Cover:55
GRASP Method!
Number cuts repeat: 0
value: 78.025974
Number Constraints Used in Cover:66
GRASP Method!
Number cuts repeat: 0
value: 78.025974
Number Constraints Used in Cover:81
GRASP Method!
Number cuts repeat: 0
value: 78.025974
Number Constraints Used in Cover:98
GRASP Method!
Number cuts repeat: 0
value: 78.025974
Number Constraints Used in Cover:112
GRASP Method!
Number cuts repeat: 0
value: 78.025974
Number Constraints Used in Cover:122
GRASP Method!
Number cuts repeat: 0
value: 78.025974
Number Constraints Used in Cover:137
GRASP Method!
Number cuts repeat: 0
value: 78.025974
Number Constraints Used in Cover:145
GRASP Method!
Number cuts repeat: 0
value: 78.025974
Number Constraints Used in Cover:158
GRASP Method!
Number cuts repeat: 0
value: 78.025974
Number Constraints Used in Cover:172
GRASP Method!
Number cuts repeat: 0
value: 78.025974
Number Constraints Used in Cover:184
GRASP Method!
Number cuts repeat: 0
value: 78.025974
Number Constraints Used in Cover:194
GRASP Method!
Number cuts repeat: 0
value: 78.025974
Number Constraints Used in Cover:207
GRASP Method!
Number cuts repeat: 0
value: 78.025974
Number Constraints Used in Cover:215
GRASP Method!
Number cuts repeat: 0
value: 78.025974
Number Constraints Used in Cover:227
GRASP Method!
Number cuts repeat: 0
value: 78.025974
Number Constraints Used in Cover:245
GRASP Method!
Number cuts repeat: 0
value: 78.025974
Number Constraints Used in Cover:262
GRASP Method!
Number cuts repeat: 0
value: 78.025974
Number Constraints Used in Cover:281
GRASP Method!
Number cuts repeat: 0
value: 78.025974
Number Constraints Used in Cover:306
GRASP Method!
Number cuts repeat: 0
value: 78.025974
Number Constraints Used in Cover:328
GRASP Method!
Number cuts repeat: 0
value: 78.025974
Number Constraints Used in Cover:356
GRASP Method!
Number cuts repeat: 0
value: 78.025974
Number Constraints Used in Cover:383
GRASP Method!
Number cuts repeat: 0
value: 78.025974
Number Constraints Used in Cover:414
GRASP Method!
Number cuts repeat: 0
value: 78.025974
Number Constraints Used in Cover:440
GRASP Method!
Number cuts repeat: 0
value: 78.025974
Number Constraints Used in Cover:467
GRASP Method!
Number cuts repeat: 0
value: 78.025974
Number Constraints Used in Cover:492
GRASP Method!
Number cuts repeat: 0
value: 78.025974
Number Constraints Used in Cover:511
GRASP Method!
Number cuts repeat: 0
value: 78.025974
Number Constraints Used in Cover:535
GRASP Method!
Number cuts repeat: 0
value: 78.025974
Number Constraints Used in Cover:562
GRASP Method!
Number cuts repeat: 0
value: 78.025974
Number Constraints Used in Cover:588
GRASP Method!
Number cuts repeat: 0
value: 78.025974
Number Constraints Used in Cover:613
GRASP Method!
Number cuts repeat: 0
value: 78.025974
Number Constraints Used in Cover:633
GRASP Method!
Number cuts repeat: 0
value: 78.025974
Number Constraints Used in Cover:659
GRASP Method!
Number cuts repeat: 0
value: 78.025974
Number Constraints Used in Cover:685
GRASP Method!
Number cuts repeat: 0
value: 78.025974
Number Constraints Used in Cover:711
GRASP Method!
Number cuts repeat: 0
value: 78.025974
Number Constraints Used in Cover:736
GRASP Method!
Number cuts repeat: 0
value: 78.025974
Number Constraints Used in Cover:759
GRASP Method!
Number cuts repeat: 0
value: 78.025974
Number Constraints Used in Cover:788
GRASP Method!
Number cuts repeat: 0
value: 78.025974
Number Constraints Used in Cover:812
GRASP Method!
Number cuts repeat: 0
value: 78.025974
Number Constraints Used in Cover:834
GRASP Method!
Number cuts repeat: 0
value: 78.025974
Number Constraints Used in Cover:862
GRASP Method!
Number cuts repeat: 0
value: 78.025974
Number Constraints Used in Cover:888
GRASP Method!
Number cuts repeat: 0
value: 78.025974
Number Constraints Used in Cover:916
GRASP Method!
Number cuts repeat: 0
value: 78.025974
Number Constraints Used in Cover:942
GRASP Method!
Number cuts repeat: 0
value: 78.025974
Number Constraints Used in Cover:964
GRASP Method!
Number cuts repeat: 0
value: 78.025974
Number Constraints Used in Cover:990
GRASP Method!
Number cuts repeat: 0
value: 78.025974
Number Constraints Used in Cover:1008
GRASP Method!
Number cuts repeat: 0
value: 78.025974
Number Constraints Used in Cover:1033
GRASP Method!
Number cuts repeat: 0
value: 78.025974
Number Constraints Used in Cover:1056
GRASP Method!
Number cuts repeat: 0
value: 78.025974
Number Constraints Used in Cover:1079
GRASP Method!
Number cuts repeat: 0
value: 78.025974
Number Constraints Used in Cover:1106
GRASP Method!
Number cuts repeat: 0
value: 78.025974
Number Constraints Used in Cover:1127
GRASP Method!
Number cuts repeat: 0
value: 78.025974
Number Constraints Used in Cover:1157
GRASP Method!
Number cuts repeat: 0
value: 78.025974
Number Constraints Used in Cover:1182
GRASP Method!
Number cuts repeat: 0
value: 78.025974
Number Cuts Final: 1204
